(set-option :produce-models true)
(define-fun ceil ((x Real)) Int (ite (= (to_int x) x) (to_int x) (+ (to_int x) 1)))
(define-fun min2 ((x Int) (y Int)) Int (ite (< x y) x y))
(define-fun max2 ((x Int) (y Int)) Int (ite (> x y) x y))
(define-fun sqrt ((x Real)) Real (^ x 0.5))

(declare-const ___stack0_last_hidden_state_size0 Int)
(set-info :example-___stack0_last_hidden_state_size0 1)
(declare-const ___stack0_last_hidden_state_size1 Int)
(set-info :example-___stack0_last_hidden_state_size1 512)
(declare-const ___stack0_last_hidden_state_size2 Int)
(set-info :example-___stack0_last_hidden_state_size2 768)
(declare-const ___stack0_last_hidden_state_stride0 Int)
(set-info :example-___stack0_last_hidden_state_stride0 393216)
(declare-const ___stack0_last_hidden_state_stride1 Int)
(set-info :example-___stack0_last_hidden_state_stride1 768)
(declare-const ___stack0_last_hidden_state_stride2 Int)
(set-info :example-___stack0_last_hidden_state_stride2 1)
(declare-const ___stack0_last_hidden_state_storage_offset Int)
(set-info :example-___stack0_last_hidden_state_storage_offset 0)
(define-fun ge () Bool (>= ___stack0_last_hidden_state_size0 0))
(assert ge)
(define-fun ge_1 () Bool (>= ___stack0_last_hidden_state_size1 0))
(assert ge_1)
(define-fun ge_2 () Bool (>= ___stack0_last_hidden_state_size2 0))
(assert ge_2)
(define-fun eq () Bool (= ___stack0_last_hidden_state_size0 0))
(define-fun not_ () Bool (not eq))
(assert not_)
(define-fun sub () Int (- ___stack0_last_hidden_state_size0 1))
(define-fun mul () Int (* ___stack0_last_hidden_state_stride0 sub))
(define-fun add () Int (+ 1 mul))
(define-fun eq_1 () Bool (= ___stack0_last_hidden_state_size1 0))
(define-fun not__1 () Bool (not eq_1))
(assert not__1)
(define-fun sub_1 () Int (- ___stack0_last_hidden_state_size1 1))
(define-fun mul_1 () Int (* ___stack0_last_hidden_state_stride1 sub_1))
(define-fun add_1 () Int (+ add mul_1))
(define-fun eq_2 () Bool (= ___stack0_last_hidden_state_size2 0))
(define-fun not__2 () Bool (not eq_2))
(assert not__2)
(define-fun sub_2 () Int (- ___stack0_last_hidden_state_size2 1))
(define-fun mul_2 () Int (* ___stack0_last_hidden_state_stride2 sub_2))
(define-fun add_2 () Int (+ add_1 mul_2))
(define-fun mul_3 () Int (* 4 add_2))
(define-fun mul_4 () Int (* ___stack0_last_hidden_state_size0 ___stack0_last_hidden_state_size1))
(define-fun mul_5 () Int (* mul_4 ___stack0_last_hidden_state_size2))
(define-fun eq_3 () Bool (= mul_5 0))
(define-fun not__3 () Bool (not eq_3))
(assert not__3)
(define-fun eq_4 () Bool (= ___stack0_last_hidden_state_size2 1))
(define-fun not__4 () Bool (not eq_4))
(assert not__4)
(define-fun eq_5 () Bool (= ___stack0_last_hidden_state_stride2 1))
(assert eq_5)
(define-fun eq_6 () Bool (= ___stack0_last_hidden_state_size1 1))
(define-fun not__5 () Bool (not eq_6))
(assert not__5)
(define-fun eq_7 () Bool (= ___stack0_last_hidden_state_stride1 ___stack0_last_hidden_state_size2))
(assert eq_7)
(define-fun mul_6 () Int (* ___stack0_last_hidden_state_size2 ___stack0_last_hidden_state_size1))
(define-fun eq_8 () Bool (= ___stack0_last_hidden_state_size0 1))
(assert eq_8)
(define-fun eq_9 () Bool (= ___stack0_last_hidden_state_size0 ___stack0_last_hidden_state_size0))
(assert eq_9)
(define-fun eq_10 () Bool (= ___stack0_last_hidden_state_size1 ___stack0_last_hidden_state_size1))
(assert eq_10)
(define-fun eq_11 () Bool (= ___stack0_last_hidden_state_size2 ___stack0_last_hidden_state_size2))
(assert eq_11)
(define-fun eq_12 () Bool (= ___stack0_last_hidden_state_stride2 0))
(define-fun not__6 () Bool (not eq_12))
(assert not__6)
(define-fun eq_13 () Bool (= ___stack0_last_hidden_state_stride1 0))
(define-fun not__7 () Bool (not eq_13))
(assert not__7)
(define-fun lt () Bool (< ___stack0_last_hidden_state_stride2 ___stack0_last_hidden_state_stride1))
(assert lt)
(define-fun eq_14 () Bool (= ___stack0_last_hidden_state_stride0 0))
(define-fun not__8 () Bool (not eq_14))
(assert not__8)
(define-fun lt_1 () Bool (< ___stack0_last_hidden_state_stride1 ___stack0_last_hidden_state_stride0))
(assert lt_1)
(define-fun mul_7 () Int (* mul_6 ___stack0_last_hidden_state_size0))
(define-fun mul_8 () Int (* mul_6 sub))
(define-fun add_3 () Int (+ 1 mul_8))
(define-fun mul_9 () Int (* ___stack0_last_hidden_state_size2 sub_1))
(define-fun add_4 () Int (+ add_3 mul_9))
(define-fun add_5 () Int (+ add_4 sub_2))
(define-fun mul_10 () Int (* 4 add_5))
(define-fun ge_3 () Bool (>= ___stack0_last_hidden_state_storage_offset 0))
(assert ge_3)
(define-fun add_6 () Int (+ ___stack0_last_hidden_state_storage_offset add_2))
(define-fun mul_11 () Int (* 4 add_6))
(declare-const ___stack0_pooler_output_size0 Int)
(set-info :example-___stack0_pooler_output_size0 1)
(declare-const ___stack0_pooler_output_size1 Int)
(set-info :example-___stack0_pooler_output_size1 768)
(declare-const ___stack0_pooler_output_stride0 Int)
(set-info :example-___stack0_pooler_output_stride0 768)
(declare-const ___stack0_pooler_output_stride1 Int)
(set-info :example-___stack0_pooler_output_stride1 1)
(declare-const ___stack0_pooler_output_storage_offset Int)
(set-info :example-___stack0_pooler_output_storage_offset 0)
(define-fun ge_4 () Bool (>= ___stack0_pooler_output_size0 0))
(assert ge_4)
(define-fun ge_5 () Bool (>= ___stack0_pooler_output_size1 0))
(assert ge_5)
(define-fun eq_15 () Bool (= ___stack0_pooler_output_size0 0))
(define-fun not__9 () Bool (not eq_15))
(assert not__9)
(define-fun sub_3 () Int (- ___stack0_pooler_output_size0 1))
(define-fun mul_12 () Int (* ___stack0_pooler_output_stride0 sub_3))
(define-fun add_7 () Int (+ 1 mul_12))
(define-fun eq_16 () Bool (= ___stack0_pooler_output_size1 0))
(define-fun not__10 () Bool (not eq_16))
(assert not__10)
(define-fun sub_4 () Int (- ___stack0_pooler_output_size1 1))
(define-fun mul_13 () Int (* ___stack0_pooler_output_stride1 sub_4))
(define-fun add_8 () Int (+ add_7 mul_13))
(define-fun mul_14 () Int (* 4 add_8))
(define-fun mul_15 () Int (* ___stack0_pooler_output_size0 ___stack0_pooler_output_size1))
(define-fun eq_17 () Bool (= mul_15 0))
(define-fun not__11 () Bool (not eq_17))
(assert not__11)
(define-fun eq_18 () Bool (= ___stack0_pooler_output_size1 1))
(define-fun not__12 () Bool (not eq_18))
(assert not__12)
(define-fun eq_19 () Bool (= ___stack0_pooler_output_stride1 1))
(assert eq_19)
(define-fun eq_20 () Bool (= ___stack0_pooler_output_size0 1))
(assert eq_20)
(define-fun eq_21 () Bool (= ___stack0_pooler_output_size0 ___stack0_pooler_output_size0))
(assert eq_21)
(define-fun eq_22 () Bool (= ___stack0_pooler_output_size1 ___stack0_pooler_output_size1))
(assert eq_22)
(define-fun eq_23 () Bool (= ___stack0_pooler_output_stride1 0))
(define-fun not__13 () Bool (not eq_23))
(assert not__13)
(define-fun eq_24 () Bool (= ___stack0_pooler_output_stride0 0))
(define-fun not__14 () Bool (not eq_24))
(assert not__14)
(define-fun lt_2 () Bool (< ___stack0_pooler_output_stride1 ___stack0_pooler_output_stride0))
(assert lt_2)
(define-fun mul_16 () Int (* ___stack0_pooler_output_size1 ___stack0_pooler_output_size0))
(define-fun mul_17 () Int (* ___stack0_pooler_output_size1 sub_3))
(define-fun add_9 () Int (+ 1 mul_17))
(define-fun add_10 () Int (+ add_9 sub_4))
(define-fun mul_18 () Int (* 4 add_10))
(define-fun ge_6 () Bool (>= ___stack0_pooler_output_storage_offset 0))
(assert ge_6)
(define-fun add_11 () Int (+ ___stack0_pooler_output_storage_offset add_8))
(define-fun mul_19 () Int (* 4 add_11))
(declare-const labels_size0 Int)
(set-info :example-labels_size0 1)
(declare-const labels_stride0 Int)
(set-info :example-labels_stride0 1)
(declare-const labels_storage_offset Int)
(set-info :example-labels_storage_offset 0)
(define-fun ge_7 () Bool (>= labels_size0 0))
(assert ge_7)
(define-fun eq_25 () Bool (= labels_size0 0))
(define-fun not__15 () Bool (not eq_25))
(assert not__15)
(define-fun sub_5 () Int (- labels_size0 1))
(define-fun mul_20 () Int (* labels_stride0 sub_5))
(define-fun add_12 () Int (+ 1 mul_20))
(define-fun mul_21 () Int (* 8 add_12))
(define-fun eq_26 () Bool (= labels_size0 1))
(assert eq_26)
(define-fun ge_8 () Bool (>= labels_storage_offset 0))
(assert ge_8)
(define-fun add_13 () Int (+ labels_storage_offset add_12))
(define-fun mul_22 () Int (* 8 add_13))
(define-fun eq_27 () Bool (= ___stack0_pooler_output_size1 768))
(assert eq_27)
(define-fun mul_23 () Int (* 2 ___stack0_pooler_output_size0))
(define-fun mul_24 () Int (* 2 sub_3))
(define-fun add_14 () Int (+ 1 mul_24))
(define-fun add_15 () Int (+ add_14 1))
(define-fun mul_25 () Int (* 4 add_15))
(define-fun mul_26 () Int (* ___stack0_pooler_output_size0 2))
(define-fun eq_28 () Bool (= mul_26 0))
(define-fun not__16 () Bool (not eq_28))
(assert not__16)
(define-fun lt_3 () Bool (< ___stack0_pooler_output_size0 0))
(define-fun not__17 () Bool (not lt_3))
(assert not__17)
(define-fun eq_29 () Bool (= mul_19 0))
(define-fun not__18 () Bool (not eq_29))
(assert not__18)
(define-fun eq_30 () Bool (= mul_25 0))
(define-fun not__19 () Bool (not eq_30))
(assert not__19)
(define-fun output0_size0 () Int ___stack0_pooler_output_size0)
(define-fun output0_size1 () Int 2)
(define-fun output0_stride0 () Int 2)
(define-fun output0_stride1 () Int 1)
(define-fun output0_storage_offset () Int 0)
(check-sat)
(get-value (___stack0_last_hidden_state_size0 ___stack0_last_hidden_state_size1 ___stack0_last_hidden_state_size2 ___stack0_last_hidden_state_stride0 ___stack0_last_hidden_state_stride1 ___stack0_last_hidden_state_stride2 ___stack0_last_hidden_state_storage_offset ___stack0_pooler_output_size0 ___stack0_pooler_output_size1 ___stack0_pooler_output_stride0 ___stack0_pooler_output_stride1 ___stack0_pooler_output_storage_offset labels_size0 labels_stride0 labels_storage_offset output0_size0 output0_size1 output0_stride0 output0_stride1 output0_storage_offset))
